(set-logic QF_UF)
(declare-fun A0 () Bool)
(declare-fun A1 () Bool)
(declare-fun A2 () Bool)
(declare-fun A3 () Bool)
(declare-fun A4 () Bool)
(declare-fun A5 () Bool)
(declare-fun A6 () Bool)
(declare-fun A7 () Bool)
(declare-fun A8 () Bool)
(declare-fun A9 () Bool)
(declare-fun A10 () Bool)
(declare-fun A11 () Bool)
(declare-fun A12 () Bool)
(declare-fun A13 () Bool)
(declare-fun A14 () Bool)
(declare-fun A15 () Bool)
(declare-fun A16 () Bool)
(declare-fun A17 () Bool)
(declare-fun A18 () Bool)
(declare-fun A19 () Bool)
(declare-fun A20 () Bool)
(declare-fun A21 () Bool)
(declare-fun A22 () Bool)
(declare-fun A23 () Bool)
(declare-fun A24 () Bool)
(assert (let ((.def_0 (not A10))) (let ((.def_1 (or A15 .def_0))) (let ((.def_2 (= A5 A18))) (let ((.def_3 (not .def_2))) (let ((.def_4 (and .def_3 .def_1))) (let ((.def_5 (not .def_4))) (let ((.def_6 (not A22))) (let ((.def_7 (not A5))) (let ((.def_8 (or .def_7 .def_6))) (let ((.def_9 (not .def_8))) (let ((.def_10 (or A15 A19))) (let ((.def_11 (not .def_10))) (let ((.def_12 (or .def_11 .def_9))) (let ((.def_13 (or .def_12 .def_5))) (let ((.def_14 (or A17 A5))) (let ((.def_15 (not .def_14))) (let ((.def_16 (or A14 A21))) (let ((.def_17 (not .def_16))) (let ((.def_18 (or .def_17 .def_15))) (let ((.def_19 (not A12))) (let ((.def_20 (= .def_7 .def_19))) (let ((.def_21 (not .def_20))) (let ((.def_22 (or A8 A21))) (let ((.def_23 (not .def_22))) (let ((.def_24 (= .def_23 .def_21))) (let ((.def_25 (not .def_24))) (let ((.def_26 (and .def_25 .def_18))) (let ((.def_27 (not .def_26))) (let ((.def_28 (or .def_27 .def_13))) (let ((.def_29 (not .def_28))) (let ((.def_30 (and A18 A13))) (let ((.def_31 (not .def_30))) (let ((.def_32 (or A8 A2))) (let ((.def_33 (not .def_32))) (let ((.def_34 (and .def_33 .def_31))) (let ((.def_35 (not .def_34))) (let ((.def_36 (or A8 A23))) (let ((.def_37 (not A17))) (let ((.def_38 (not A23))) (let ((.def_39 (or .def_38 .def_37))) (let ((.def_40 (and .def_39 .def_36))) (let ((.def_41 (= .def_40 .def_35))) (let ((.def_42 (not .def_41))) (let ((.def_43 (and A0 .def_7))) (let ((.def_44 (and A5 .def_19))) (let ((.def_45 (or .def_44 .def_43))) (let ((.def_46 (not .def_45))) (let ((.def_47 (not A24))) (let ((.def_48 (or A22 .def_47))) (let ((.def_49 (not A15))) (let ((.def_50 (and .def_49 A3))) (let ((.def_51 (or .def_50 .def_48))) (let ((.def_52 (not .def_51))) (let ((.def_53 (and .def_52 .def_46))) (let ((.def_54 (not .def_53))) (let ((.def_55 (or .def_54 .def_42))) (let ((.def_56 (not .def_55))) (let ((.def_57 (or .def_56 .def_29))) (let ((.def_58 (not .def_57))) (let ((.def_59 (not A7))) (let ((.def_60 (and .def_59 .def_49))) (let ((.def_61 (not .def_60))) (let ((.def_62 (or A0 A9))) (let ((.def_63 (not .def_62))) (let ((.def_64 (and .def_63 .def_61))) (let ((.def_65 (and A14 A13))) (let ((.def_66 (not .def_65))) (let ((.def_67 (not A0))) (let ((.def_68 (not A6))) (let ((.def_69 (and .def_68 .def_67))) (let ((.def_70 (not .def_69))) (let ((.def_71 (and .def_70 .def_66))) (let ((.def_72 (not .def_71))) (let ((.def_73 (or .def_72 .def_64))) (let ((.def_74 (and A19 .def_37))) (let ((.def_75 (not .def_74))) (let ((.def_76 (and A7 A10))) (let ((.def_77 (not .def_76))) (let ((.def_78 (or .def_77 .def_75))) (let ((.def_79 (not .def_78))) (let ((.def_80 (and A24 A10))) (let ((.def_81 (not A18))) (let ((.def_82 (not A1))) (let ((.def_83 (or .def_82 .def_81))) (let ((.def_84 (and .def_83 .def_80))) (let ((.def_85 (not .def_84))) (let ((.def_86 (= .def_85 .def_79))) (let ((.def_87 (not .def_86))) (let ((.def_88 (or .def_87 .def_73))) (let ((.def_89 (not A20))) (let ((.def_90 (= .def_89 A6))) (let ((.def_91 (not .def_90))) (let ((.def_92 (and .def_59 .def_59))) (let ((.def_93 (not .def_92))) (let ((.def_94 (or .def_93 .def_91))) (let ((.def_95 (or .def_7 A21))) (let ((.def_96 (not A3))) (let ((.def_97 (not A19))) (let ((.def_98 (or .def_97 .def_96))) (let ((.def_99 (not .def_98))) (let ((.def_100 (or .def_99 .def_95))) (let ((.def_101 (and .def_100 .def_94))) (let ((.def_102 (and A23 .def_0))) (let ((.def_103 (not .def_102))) (let ((.def_104 (and A13 A17))) (let ((.def_105 (and .def_104 .def_103))) (let ((.def_106 (not .def_105))) (let ((.def_107 (not A11))) (let ((.def_108 (and .def_37 .def_107))) (let ((.def_109 (not .def_108))) (let ((.def_110 (and .def_38 .def_96))) (let ((.def_111 (and .def_110 .def_109))) (let ((.def_112 (not .def_111))) (let ((.def_113 (or .def_112 .def_106))) (let ((.def_114 (not .def_113))) (let ((.def_115 (and .def_114 .def_101))) (let ((.def_116 (and .def_115 .def_88))) (let ((.def_117 (or .def_116 .def_58))) (let ((.def_118 (and .def_0 .def_97))) (let ((.def_119 (not .def_118))) (let ((.def_120 (not A13))) (let ((.def_121 (or .def_120 .def_6))) (let ((.def_122 (not .def_121))) (let ((.def_123 (or .def_122 .def_119))) (let ((.def_124 (not .def_123))) (let ((.def_125 (or .def_120 A5))) (let ((.def_126 (= A4 .def_7))) (let ((.def_127 (or .def_126 .def_125))) (let ((.def_128 (not .def_127))) (let ((.def_129 (and .def_128 .def_124))) (let ((.def_130 (not .def_129))) (let ((.def_131 (or A23 .def_49))) (let ((.def_132 (not .def_131))) (let ((.def_133 (or .def_107 A19))) (let ((.def_134 (or .def_133 .def_132))) (let ((.def_135 (not .def_134))) (let ((.def_136 (not A21))) (let ((.def_137 (= A7 .def_136))) (let ((.def_138 (not .def_137))) (let ((.def_139 (or .def_6 .def_120))) (let ((.def_140 (and .def_139 .def_138))) (let ((.def_141 (= .def_140 .def_135))) (let ((.def_142 (not .def_141))) (let ((.def_143 (or .def_142 .def_130))) (let ((.def_144 (not .def_143))) (let ((.def_145 (not A8))) (let ((.def_146 (or .def_145 A15))) (let ((.def_147 (not .def_146))) (let ((.def_148 (and .def_89 A12))) (let ((.def_149 (not .def_148))) (let ((.def_150 (or .def_149 .def_147))) (let ((.def_151 (not A4))) (let ((.def_152 (not A2))) (let ((.def_153 (and .def_152 .def_151))) (let ((.def_154 (not .def_153))) (let ((.def_155 (or A22 A0))) (let ((.def_156 (and .def_155 .def_154))) (let ((.def_157 (or .def_156 .def_150))) (let ((.def_158 (or .def_152 .def_19))) (let ((.def_159 (not .def_158))) (let ((.def_160 (and .def_97 A11))) (let ((.def_161 (and .def_160 .def_159))) (let ((.def_162 (and .def_97 .def_81))) (let ((.def_163 (and .def_89 .def_38))) (let ((.def_164 (and .def_163 .def_162))) (let ((.def_165 (or .def_164 .def_161))) (let ((.def_166 (or .def_165 .def_157))) (let ((.def_167 (not .def_166))) (let ((.def_168 (or .def_167 .def_144))) (let ((.def_169 (and .def_6 .def_6))) (let ((.def_170 (not .def_169))) (let ((.def_171 (or .def_68 A0))) (let ((.def_172 (and .def_171 .def_170))) (let ((.def_173 (or A17 A19))) (let ((.def_174 (not A16))) (let ((.def_175 (and A15 .def_174))) (let ((.def_176 (or .def_175 .def_173))) (let ((.def_177 (and .def_176 .def_172))) (let ((.def_178 (not .def_177))) (let ((.def_179 (and A9 .def_38))) (let ((.def_180 (or A22 A1))) (let ((.def_181 (not .def_180))) (let ((.def_182 (and .def_181 .def_179))) (let ((.def_183 (not .def_182))) (let ((.def_184 (or A6 A15))) (let ((.def_185 (not A14))) (let ((.def_186 (or .def_185 A2))) (let ((.def_187 (or .def_186 .def_184))) (let ((.def_188 (or .def_187 .def_183))) (let ((.def_189 (and .def_188 .def_178))) (let ((.def_190 (and .def_37 A19))) (let ((.def_191 (and A0 A4))) (let ((.def_192 (= .def_191 .def_190))) (let ((.def_193 (and A18 A9))) (let ((.def_194 (or A4 A23))) (let ((.def_195 (and .def_194 .def_193))) (let ((.def_196 (or .def_195 .def_192))) (let ((.def_197 (or .def_59 .def_151))) (let ((.def_198 (not .def_197))) (let ((.def_199 (or .def_107 A5))) (let ((.def_200 (and .def_199 .def_198))) (let ((.def_201 (and .def_47 A24))) (let ((.def_202 (not .def_201))) (let ((.def_203 (not A9))) (let ((.def_204 (= A21 .def_203))) (let ((.def_205 (or .def_204 .def_202))) (let ((.def_206 (= .def_205 .def_200))) (let ((.def_207 (or .def_206 .def_196))) (let ((.def_208 (and .def_207 .def_189))) (let ((.def_209 (not .def_208))) (let ((.def_210 (and .def_209 .def_168))) (let ((.def_211 (and .def_210 .def_117))) (let ((.def_212 (not .def_211))) (let ((.def_213 (or A21 A19))) (let ((.def_214 (and .def_47 .def_203))) (let ((.def_215 (not .def_214))) (let ((.def_216 (or .def_215 .def_213))) (let ((.def_217 (and A12 .def_67))) (let ((.def_218 (not .def_217))) (let ((.def_219 (or .def_203 .def_37))) (let ((.def_220 (not .def_219))) (let ((.def_221 (or .def_220 .def_218))) (let ((.def_222 (not .def_221))) (let ((.def_223 (or .def_222 .def_216))) (let ((.def_224 (not .def_223))) (let ((.def_225 (and A9 A13))) (let ((.def_226 (not .def_225))) (let ((.def_227 (or A14 A4))) (let ((.def_228 (not .def_227))) (let ((.def_229 (and .def_228 .def_226))) (let ((.def_230 (or A9 A21))) (let ((.def_231 (not .def_230))) (let ((.def_232 (or A21 .def_49))) (let ((.def_233 (not .def_232))) (let ((.def_234 (or .def_233 .def_231))) (let ((.def_235 (not .def_234))) (let ((.def_236 (or .def_235 .def_229))) (let ((.def_237 (not .def_236))) (let ((.def_238 (and .def_237 .def_224))) (let ((.def_239 (or A16 .def_38))) (let ((.def_240 (and A24 A1))) (let ((.def_241 (or .def_240 .def_239))) (let ((.def_242 (not .def_241))) (let ((.def_243 (and A15 .def_67))) (let ((.def_244 (not .def_243))) (let ((.def_245 (and A22 .def_37))) (let ((.def_246 (and .def_245 .def_244))) (let ((.def_247 (or .def_246 .def_242))) (let ((.def_248 (or .def_174 A14))) (let ((.def_249 (not .def_248))) (let ((.def_250 (and A7 A4))) (let ((.def_251 (and .def_250 .def_249))) (let ((.def_252 (or A16 .def_89))) (let ((.def_253 (or .def_47 A19))) (let ((.def_254 (or .def_253 .def_252))) (let ((.def_255 (not .def_254))) (let ((.def_256 (= .def_255 .def_251))) (let ((.def_257 (not .def_256))) (let ((.def_258 (or .def_257 .def_247))) (let ((.def_259 (and .def_258 .def_238))) (let ((.def_260 (or .def_38 .def_68))) (let ((.def_261 (or .def_68 A2))) (let ((.def_262 (not .def_261))) (let ((.def_263 (and .def_262 .def_260))) (let ((.def_264 (not .def_263))) (let ((.def_265 (or A10 .def_136))) (let ((.def_266 (not .def_265))) (let ((.def_267 (and A13 .def_47))) (let ((.def_268 (and .def_267 .def_266))) (let ((.def_269 (= .def_268 .def_264))) (let ((.def_270 (not .def_269))) (let ((.def_271 (or .def_97 .def_0))) (let ((.def_272 (not .def_271))) (let ((.def_273 (= .def_49 A10))) (let ((.def_274 (and .def_273 .def_272))) (let ((.def_275 (not .def_274))) (let ((.def_276 (and A2 A11))) (let ((.def_277 (not .def_276))) (let ((.def_278 (= .def_96 A22))) (let ((.def_279 (or .def_278 .def_277))) (let ((.def_280 (= .def_279 .def_275))) (let ((.def_281 (and .def_280 .def_270))) (let ((.def_282 (and .def_97 A9))) (let ((.def_283 (not .def_282))) (let ((.def_284 (or A6 .def_19))) (let ((.def_285 (not .def_284))) (let ((.def_286 (or .def_285 .def_283))) (let ((.def_287 (not .def_286))) (let ((.def_288 (and A20 .def_0))) (let ((.def_289 (not .def_288))) (let ((.def_290 (or A20 .def_19))) (let ((.def_291 (or .def_290 .def_289))) (let ((.def_292 (not .def_291))) (let ((.def_293 (or .def_292 .def_287))) (let ((.def_294 (not .def_293))) (let ((.def_295 (or .def_89 A14))) (let ((.def_296 (and .def_49 A10))) (let ((.def_297 (or .def_296 .def_295))) (let ((.def_298 (or A4 .def_7))) (let ((.def_299 (not .def_298))) (let ((.def_300 (and .def_203 .def_185))) (let ((.def_301 (= .def_300 .def_299))) (let ((.def_302 (not .def_301))) (let ((.def_303 (or .def_302 .def_297))) (let ((.def_304 (and .def_303 .def_294))) (let ((.def_305 (and .def_304 .def_281))) (let ((.def_306 (not .def_305))) (let ((.def_307 (and .def_306 .def_259))) (let ((.def_308 (and .def_89 A5))) (let ((.def_309 (not .def_308))) (let ((.def_310 (and A3 A8))) (let ((.def_311 (and .def_310 .def_309))) (let ((.def_312 (not .def_311))) (let ((.def_313 (and .def_203 .def_151))) (let ((.def_314 (not .def_313))) (let ((.def_315 (and .def_0 .def_107))) (let ((.def_316 (not .def_315))) (let ((.def_317 (and .def_316 .def_314))) (let ((.def_318 (or .def_317 .def_312))) (let ((.def_319 (and .def_89 A16))) (let ((.def_320 (or A21 A23))) (let ((.def_321 (and .def_320 .def_319))) (let ((.def_322 (= .def_174 .def_120))) (let ((.def_323 (or A15 A16))) (let ((.def_324 (not .def_323))) (let ((.def_325 (and .def_324 .def_322))) (let ((.def_326 (and .def_325 .def_321))) (let ((.def_327 (not .def_326))) (let ((.def_328 (and .def_327 .def_318))) (let ((.def_329 (not .def_328))) (let ((.def_330 (and .def_6 .def_152))) (let ((.def_331 (not .def_330))) (let ((.def_332 (and A6 .def_37))) (let ((.def_333 (not .def_332))) (let ((.def_334 (or .def_333 .def_331))) (let ((.def_335 (and A24 .def_7))) (let ((.def_336 (and .def_68 .def_0))) (let ((.def_337 (not .def_336))) (let ((.def_338 (and .def_337 .def_335))) (let ((.def_339 (= .def_338 .def_334))) (let ((.def_340 (not .def_339))) (let ((.def_341 (or .def_0 .def_152))) (let ((.def_342 (not .def_341))) (let ((.def_343 (and .def_120 A12))) (let ((.def_344 (not .def_343))) (let ((.def_345 (= .def_344 .def_342))) (let ((.def_346 (not .def_345))) (let ((.def_347 (and A8 .def_107))) (let ((.def_348 (not .def_347))) (let ((.def_349 (and .def_348 .def_272))) (let ((.def_350 (or .def_349 .def_346))) (let ((.def_351 (not .def_350))) (let ((.def_352 (and .def_351 .def_340))) (let ((.def_353 (or .def_352 .def_329))) (let ((.def_354 (or A4 .def_47))) (let ((.def_355 (not .def_354))) (let ((.def_356 (and A1 .def_89))) (let ((.def_357 (not .def_356))) (let ((.def_358 (and .def_357 .def_355))) (let ((.def_359 (not .def_358))) (let ((.def_360 (and .def_107 A1))) (let ((.def_361 (= A9 .def_97))) (let ((.def_362 (or .def_361 .def_360))) (let ((.def_363 (or .def_362 .def_359))) (let ((.def_364 (or A14 A5))) (let ((.def_365 (and A7 .def_7))) (let ((.def_366 (not .def_365))) (let ((.def_367 (or .def_366 .def_364))) (let ((.def_368 (or A7 .def_136))) (let ((.def_369 (or .def_37 .def_185))) (let ((.def_370 (not .def_369))) (let ((.def_371 (or .def_370 .def_368))) (let ((.def_372 (and .def_371 .def_367))) (let ((.def_373 (not .def_372))) (let ((.def_374 (or .def_373 .def_363))) (let ((.def_375 (= A15 A1))) (let ((.def_376 (not .def_375))) (let ((.def_377 (or .def_152 .def_97))) (let ((.def_378 (= .def_377 .def_376))) (let ((.def_379 (not .def_378))) (let ((.def_380 (or .def_185 A21))) (let ((.def_381 (or A20 A23))) (let ((.def_382 (or .def_381 .def_380))) (let ((.def_383 (not .def_382))) (let ((.def_384 (or .def_383 .def_379))) (let ((.def_385 (not .def_384))) (let ((.def_386 (and A1 .def_67))) (let ((.def_387 (not .def_386))) (let ((.def_388 (and .def_47 .def_185))) (let ((.def_389 (or .def_388 .def_387))) (let ((.def_390 (not .def_389))) (let ((.def_391 (and A15 .def_89))) (let ((.def_392 (not .def_391))) (let ((.def_393 (and .def_96 A4))) (let ((.def_394 (= .def_393 .def_392))) (let ((.def_395 (not .def_394))) (let ((.def_396 (and .def_395 .def_390))) (let ((.def_397 (and .def_396 .def_385))) (let ((.def_398 (not .def_397))) (let ((.def_399 (or .def_398 .def_374))) (let ((.def_400 (and .def_399 .def_353))) (let ((.def_401 (not .def_400))) (let ((.def_402 (and .def_401 .def_307))) (let ((.def_403 (not .def_402))) (let ((.def_404 (and .def_403 .def_212))) (let ((.def_405 (not .def_404))) .def_405)))))))))))))))))))))))))))))))))))))))))))))))))))))))))))))))))))))))))))))))))))))))))))))))))))))))))))))))))))))))))))))))))))))))))))))))))))))))))))))))))))))))))))))))))))))))))))))))))))))))))))))))))))))))))))))))))))))))))))))))))))))))))))))))))))))))))))))))))))))))))))))))))))))))))))))))))))))))))))))))))))))))))))))))))))))))))))))))))))))))))))))))))))))))))))))))))))))))))))))))))))))))
(check-sat)
